25
3 0 1
3 1 1
4 0 1
4 2 1
4 3 1
5 0 1
5 3 1
6 0 1
6 1 1
6 5 1
7 0 1
7 1 1
7 2 1
7 4 1
7 5 1
7 6 1
8 2 1
8 3 1
8 7 1
9 0 1
9 1 1
9 4 1
10 2 1
10 5 1
10 6 1
11 0 1
11 3 1
11 5 1
11 10 1
12 1 1
12 3 1
12 7 1
12 9 1
13 6 1
13 7 1
13 8 1
13 11 1
14 2 1
14 4 1
14 5 1
14 8 1
14 13 1
15 2 1
15 4 1
15 5 1
15 6 1
15 14 1
16 0 1
16 5 1
16 6 1
16 9 1
16 12 1
16 13 1
16 14 1
16 15 1
17 0 1
17 1 1
17 4 1
17 5 1
17 16 1
18 0 1
18 3 1
18 5 1
18 6 1
18 7 1
18 8 1
18 9 1
18 12 1
18 13 1
18 14 1
18 15 1
18 17 1
19 0 1
19 5 1
19 8 1
19 10 1
19 15 1
19 16 1
19 17 1
19 18 1
20 1 1
20 4 1
20 7 1
20 8 1
20 10 1
20 11 1
20 12 1
20 14 1
20 15 1
20 16 1
20 17 1
21 1 1
21 2 1
21 3 1
21 7 1
21 8 1
21 10 1
21 15 1
21 19 1
22 0 1
22 2 1
22 8 1
22 10 1
22 11 1
22 12 1
22 13 1
22 18 1
22 20 1
23 2 1
23 4 1
23 5 1
23 6 1
23 8 1
23 10 1
23 13 1
23 14 1
23 15 1
23 17 1
23 22 1
24 0 1
24 2 1
24 3 1
24 8 1
24 10 1
24 12 1
24 13 1
24 15 1
24 17 1
24 18 1
24 22 1
